;;^([a-z]{1,4}?){1,4}?[^A-Za-z0-9]

(set-option :produce-models true)
(set-option :inline-size-limit 10000)

(declare-const var0 String)
(declare-const res String)

(assert (str.in.re var0 (re.* (re.range "\x01" "\xff"))))

(assert (str.in.re var0 (re.++ re.begin-anchor (re.++ ((_ re.loop? 1 4) ((_ re.capture 1) ((_ re.loop? 1 4) (re.range "a" "z")))) (re.++ (re.inter (re.diff (re.range "\x01" "\xff") (re.range "A" "Z")) (re.inter (re.diff (re.range "\x01" "\xff") (re.range "a" "z")) (re.diff (re.range "\x01" "\xff") (re.range "0" "9")))) re.all)))))

(assert (= res ((_ str.extract 1) var0 (re.++ re.begin-anchor (re.++ ((_ re.loop? 1 4) ((_ re.capture 1) ((_ re.loop? 1 4) (re.range "a" "z")))) (re.++ (re.inter (re.diff (re.range "\x01" "\xff") (re.range "A" "Z")) (re.inter (re.diff (re.range "\x01" "\xff") (re.range "a" "z")) (re.diff (re.range "\x01" "\xff") (re.range "0" "9")))) re.all))))))

(assert (= var0 "aaaaaaaaaa\u{1}"))

(check-sat)
(get-model)
